Translating instance to solver...

GLPSOL--GLPK LP/MIP Solver 5.0
Parameter(s) specified in the command line:
 --tmlim 28800 --mipgap 0.0 --write /tmp/tmptj_cm_dh.glpk.raw --wglp /tmp/tmp7xvg4__x.glpk.glp
 --cpxlp /tmp/tmp3ranoat2.pyomo.lp
Reading problem data from '/tmp/tmp3ranoat2.pyomo.lp'...
/tmp/tmp3ranoat2.pyomo.lp:131696: warning: lower bound of variable 'x2' redefined
/tmp/tmp3ranoat2.pyomo.lp:131696: warning: upper bound of variable 'x2' redefined
20953 rows, 14603 columns, 54155 non-zeros
14603 integer variables, 14579 of which are binary
146275 lines were read
Writing problem data to '/tmp/tmp7xvg4__x.glpk.glp'...
99256 lines were written
GLPK Integer Optimizer 5.0
20953 rows, 14603 columns, 54155 non-zeros
14603 integer variables, 14579 of which are binary
Preprocessing...
216 hidden packing inequaliti(es) were detected
2064 hidden covering inequaliti(es) were detected
155 constraint coefficient(s) were reduced
8668 rows, 4206 columns, 22493 non-zeros
4206 integer variables, 4183 of which are binary
Scaling...
 A: min|aij| =  1.000e+00  max|aij| =  2.300e+01  ratio =  2.300e+01
GM: min|aij| =  5.956e-01  max|aij| =  1.679e+00  ratio =  2.819e+00
EQ: min|aij| =  3.556e-01  max|aij| =  1.000e+00  ratio =  2.812e+00
2N: min|aij| =  2.500e-01  max|aij| =  1.625e+00  ratio =  6.500e+00
Constructing initial basis...
Size of triangular part is 8667
Solving LP relaxation...
GLPK Simplex Optimizer 5.0
8668 rows, 4206 columns, 22493 non-zeros
      0: obj =   0.000000000e+00 inf =   1.024e+02 (177)
Perturbing LP to avoid stalling [231]...
    847: obj =   4.872762523e+00 inf =   2.444e-07 (0) 5
Removing LP perturbation [1645]...
*  1645: obj =   6.567820000e-01 inf =   5.577e-17 (0) 5
OPTIMAL LP SOLUTION FOUND
Integer optimization begins...
Long-step dual simplex will be used
+  1645: mip =     not found yet >=              -inf        (1; 0)
+  7148: mip =     not found yet >=   6.913738367e-01        (109; 8)
+ 11435: >>>>>   1.529455000e+00 >=   7.403534286e-01  51.6% (241; 21)
+ 18563: mip =   1.529455000e+00 >=   7.764925385e-01  49.2% (351; 115)
+ 24174: mip =   1.529455000e+00 >=   8.412002500e-01  45.0% (505; 151)
+ 26850: >>>>>   1.061782000e+00 >=   8.723083158e-01  17.8% (542; 175)
+ 34344: mip =   1.061782000e+00 >=   9.176730000e-01  13.6% (169; 1227)
+ 38829: mip =   1.061782000e+00 >=   9.613717143e-01   9.5% (168; 1595)
+ 44256: mip =   1.061782000e+00 >=   9.856487778e-01   7.2% (133; 2015)
+ 49300: mip =   1.061782000e+00 >=   9.856487778e-01   7.2% (203; 2185)
+ 54020: mip =   1.061782000e+00 >=   9.856487778e-01   7.2% (273; 2335)
+ 59290: mip =   1.061782000e+00 >=   9.856487778e-01   7.2% (264; 2606)
+ 64786: mip =   1.061782000e+00 >=   1.040029400e+00   2.0% (58; 3637)
+ 65146: mip =   1.061782000e+00 >=     tree is empty   0.0% (0; 4043)
INTEGER OPTIMAL SOLUTION FOUND
Time used:   55.6 secs
Memory used: 24.1 Mb (25296022 bytes)
Writing MIP solution to '/tmp/tmptj_cm_dh.glpk.raw'...
35565 lines were written

Time in solver (for this epsilon): 55.72857141494751 s
Elapsed time (for this epsilon): 56.35125279426575 s


Total elapsed time since execution of first epsilon: 277408.3297967911 s

Results:

E = 1.061782 mA
C = 30.0 points
C ~= 12.0 km^2

Minimum Epsilon for this instance = 11
Maximum Epsilon for this instance = 172

Current Epsilon = 22


Instance Epsilon Preprocessing Time: 0.00529789924621582 s


Updated solution vectors:
sol_E = [-0.611782,-1.061782]
sol_C = [14.0,30.0]
sol_eps = [11,22]
sol_gap = [0.0,0.0]
